# General settings:

# Other settings:
lattice_vector          2.73831641 2.73831640 0.00000001
atom_frac               0.25000000 0.25000000 0.25000000 Si
