# General settings:
xc                      pbe
k_grid                  8 8 8
spin                    collinear

# Other settings:
default_initial_moment  1
relax_geometry          bfgs 5e-3
relax_unit_cell         full

# Additional output:

output cube total_density
cube origin    1.5000000000     2.0000000000     2.5000000000
cube edge 101     0.0300000000     0.0000000000     0.0000000000
cube edge 135     0.0000000000     0.0300000000     0.0000000000
cube edge 169     0.0000000000     0.0000000000     0.0300000000


#############################################
species Si

nucleus 14
mass 28.0855
l_hartree 4
cut_pot 3.5 1.5 1.0
basis_dep_cutoff 1e-4
radial_base 42 5.0
radial_multiplier 1

# Angular grid divisions
angular_grids specified
division 0.5866 50
division 0.9616 110
division 1.2249 194
division 1.3795 302
# division 1.4810 434
# division 1.5529 590
# division 1.6284 770
# division 1.7077 974
# division 2.4068 1202
# outer_grid 974
outer_grid 302

# Minimal basis functions
valence 3 s 2.
valence 3 p 2.
ion_occ 3 s 1.
ion_occ 3 p 1.

# Additional basis functions
hydro 3 d 4.2
hydro 2 p 1.4
hydro 4 f 6.2
ionic 3 s auto
# hydro 3 d 9
# hydro 5 g 9.4
# hydro 4 p 4
# hydro 1 s 0.65
# ionic 3 d auto
# hydro 3 s 2.6
# hydro 4 f 8.4
# hydro 3 d 3.4
# hydro 3 p 7.8
# hydro 2 p 1.6
# hydro 5 g 10.8
# hydro 5 f 11.2
# hydro 3 d 1
# hydro 4 s 4.5
# hydro 4 d 6.6
# hydro 5 g 16.4
# hydro 4 d 9

